NAME : kroC100-C-3-0-a.21340.tour
COMMENT : Length = 21340
COMMENT : Found by LKH-3 [Keld Helsgaun] Tue Jul 30 13:14:12 2024
TYPE : TOUR
DIMENSION : 100
TOUR_SECTION
1
27
15
13
79
64
20
42
55
67
47
31
65
80
6
54
75
22
8
17
25
90
34
58
98
88
28
39
38
71
56
43
5
86
72
83
62
50
95
94
91
76
70
21
23
35
2
68
30
77
41
89
59
73
3
69
60
4
93
99
19
92
10
14
36
57
74
100
33
45
81
97
96
87
52
11
84
48
66
44
63
51
16
37
9
78
82
7
26
61
32
24
46
29
18
49
12
40
85
53
-1
EOF
